p cnf 636 1977
2 -4 51 0
-2 -4 -51 0
2 4 -51 0
-2 4 51 0
-7 8 52 0
7 8 -52 0
-7 -8 -52 0
7 -8 52 0
-12 13 53 0
12 13 -53 0
-12 -13 -53 0
12 -13 53 0
-15 16 54 0
15 16 -54 0
-15 -16 -54 0
15 -16 54 0
17 -18 55 0
-17 -18 -55 0
17 18 -55 0
-17 18 55 0
19 20 56 0
-19 20 -56 0
19 -20 -56 0
-19 -20 56 0
-21 -22 57 0
21 -22 -57 0
-21 22 -57 0
21 22 57 0
24 25 58 0
-24 25 -58 0
24 -25 -58 0
-24 -25 58 0
28 31 59 0
-28 31 -59 0
28 -31 -59 0
-28 -31 59 0
-33 -34 60 0
33 -34 -60 0
-33 34 -60 0
33 34 60 0
-41 -42 61 0
41 -42 -61 0
-41 42 -61 0
41 42 61 0
-43 -45 62 0
43 -45 -62 0
-43 45 -62 0
43 45 62 0
-47 -49 63 0
47 -49 -63 0
-47 49 -63 0
47 49 63 0
50 -51 64 0
-50 -51 -64 0
50 51 -64 0
-50 51 64 0
52 -53 65 0
-52 -53 -65 0
52 53 -65 0
-52 53 65 0
54 -55 66 0
-54 -55 -66 0
54 55 -66 0
-54 55 66 0
56 -57 67 0
-56 -57 -67 0
56 57 -67 0
-56 57 67 0
58 -59 68 0
-58 -59 -68 0
58 59 -68 0
-58 59 68 0
60 -61 69 0
-60 -61 -69 0
60 61 -69 0
-60 61 69 0
62 -63 70 0
-62 -63 -70 0
62 63 -70 0
-62 63 70 0
64 -65 71 0
-64 -65 -71 0
64 65 -71 0
-64 65 71 0
66 -67 72 0
-66 -67 -72 0
66 67 -72 0
-66 67 72 0
68 -69 73 0
-68 -69 -73 0
68 69 -73 0
-68 69 73 0
70 -71 74 0
-70 -71 -74 0
70 71 -74 0
-70 71 74 0
72 -73 75 0
-72 -73 -75 0
72 73 -75 0
-72 73 75 0
74 75 0
-74 -75 0
-3 -5 76 0
3 -5 -76 0
-3 5 -76 0
3 5 76 0
11 -15 77 0
-11 -15 -77 0
11 15 -77 0
-11 15 77 0
-16 -19 78 0
16 -19 -78 0
-16 19 -78 0
16 19 78 0
22 -24 79 0
-22 -24 -79 0
22 24 -79 0
-22 24 79 0
-27 28 80 0
27 28 -80 0
-27 -28 -80 0
27 -28 80 0
29 31 81 0
-29 31 -81 0
29 -31 -81 0
-29 -31 81 0
32 34 82 0
-32 34 -82 0
32 -34 -82 0
-32 -34 82 0
37 -44 83 0
-37 -44 -83 0
37 44 -83 0
-37 44 83 0
45 47 84 0
-45 47 -84 0
45 -47 -84 0
-45 -47 84 0
75 -76 85 0
-75 -76 -85 0
75 76 -85 0
-75 76 85 0
77 -78 86 0
-77 -78 -86 0
77 78 -86 0
-77 78 86 0
79 -80 87 0
-79 -80 -87 0
79 80 -87 0
-79 80 87 0
81 -82 88 0
-81 -82 -88 0
81 82 -88 0
-81 82 88 0
83 -84 89 0
-83 -84 -89 0
83 84 -89 0
-83 84 89 0
85 -86 90 0
-85 -86 -90 0
85 86 -90 0
-85 86 90 0
87 -88 91 0
-87 -88 -91 0
87 88 -91 0
-87 88 91 0
-89 -90 91 0
89 -90 -91 0
-89 90 -91 0
89 90 91 0
1 3 92 0
-1 3 -92 0
1 -3 -92 0
-1 -3 92 0
5 -7 93 0
-5 -7 -93 0
5 7 -93 0
-5 7 93 0
-9 -10 94 0
9 -10 -94 0
-9 10 -94 0
9 10 94 0
-12 13 95 0
12 13 -95 0
-12 -13 -95 0
12 -13 95 0
14 -15 96 0
-14 -15 -96 0
14 15 -96 0
-14 15 96 0
-17 20 97 0
17 20 -97 0
-17 -20 -97 0
17 -20 97 0
21 -22 98 0
-21 -22 -98 0
21 22 -98 0
-21 22 98 0
-23 26 99 0
23 26 -99 0
-23 -26 -99 0
23 -26 99 0
-30 -33 100 0
30 -33 -100 0
-30 33 -100 0
30 33 100 0
-34 -35 101 0
34 -35 -101 0
-34 35 -101 0
34 35 101 0
-40 44 102 0
40 44 -102 0
-40 -44 -102 0
40 -44 102 0
-46 47 103 0
46 47 -103 0
-46 -47 -103 0
46 -47 103 0
49 -50 104 0
-49 -50 -104 0
49 50 -104 0
-49 50 104 0
92 -93 105 0
-92 -93 -105 0
92 93 -105 0
-92 93 105 0
94 -95 106 0
-94 -95 -106 0
94 95 -106 0
-94 95 106 0
96 -97 107 0
-96 -97 -107 0
96 97 -107 0
-96 97 107 0
98 -99 108 0
-98 -99 -108 0
98 99 -108 0
-98 99 108 0
100 -101 109 0
-100 -101 -109 0
100 101 -109 0
-100 101 109 0
102 -103 110 0
-102 -103 -110 0
102 103 -110 0
-102 103 110 0
104 -105 111 0
-104 -105 -111 0
104 105 -111 0
-104 105 111 0
106 -107 112 0
-106 -107 -112 0
106 107 -112 0
-106 107 112 0
108 -109 113 0
-108 -109 -113 0
108 109 -113 0
-108 109 113 0
110 -111 114 0
-110 -111 -114 0
110 111 -114 0
-110 111 114 0
112 -113 115 0
-112 -113 -115 0
112 113 -115 0
-112 113 115 0
114 115 0
-114 -115 0
-1 -5 116 0
1 -5 -116 0
-1 5 -116 0
1 5 116 0
10 11 117 0
-10 11 -117 0
10 -11 -117 0
-10 -11 117 0
12 15 118 0
-12 15 -118 0
12 -15 -118 0
-12 -15 118 0
18 -25 119 0
-18 -25 -119 0
18 25 -119 0
-18 25 119 0
-26 -27 120 0
26 -27 -120 0
-26 27 -120 0
26 27 120 0
30 -31 121 0
-30 -31 -121 0
30 31 -121 0
-30 31 121 0
-32 34 122 0
32 34 -122 0
-32 -34 -122 0
32 -34 122 0
35 -36 123 0
-35 -36 -123 0
35 36 -123 0
-35 36 123 0
-40 -43 124 0
40 -43 -124 0
-40 43 -124 0
40 43 124 0
44 -46 125 0
-44 -46 -125 0
44 46 -125 0
-44 46 125 0
115 -116 126 0
-115 -116 -126 0
115 116 -126 0
-115 116 126 0
117 -118 127 0
-117 -118 -127 0
117 118 -127 0
-117 118 127 0
119 -120 128 0
-119 -120 -128 0
119 120 -128 0
-119 120 128 0
121 -122 129 0
-121 -122 -129 0
121 122 -129 0
-121 122 129 0
123 -124 130 0
-123 -124 -130 0
123 124 -130 0
-123 124 130 0
125 -126 131 0
-125 -126 -131 0
125 126 -131 0
-125 126 131 0
127 -128 132 0
-127 -128 -132 0
127 128 -132 0
-127 128 132 0
129 -130 133 0
-129 -130 -133 0
129 130 -133 0
-129 130 133 0
-131 -132 133 0
131 -132 -133 0
-131 132 -133 0
131 132 133 0
1 -4 134 0
-1 -4 -134 0
1 4 -134 0
-1 4 134 0
-5 8 135 0
5 8 -135 0
-5 -8 -135 0
5 -8 135 0
9 12 136 0
-9 12 -136 0
9 -12 -136 0
-9 -12 136 0
14 -15 137 0
-14 -15 -137 0
14 15 -137 0
-14 15 137 0
18 -23 138 0
-18 -23 -138 0
18 23 -138 0
-18 23 138 0
-24 26 139 0
24 26 -139 0
-24 -26 -139 0
24 -26 139 0
-27 -29 140 0
27 -29 -140 0
-27 29 -140 0
27 29 140 0
-30 -32 141 0
30 -32 -141 0
-30 32 -141 0
30 32 141 0
33 -34 142 0
-33 -34 -142 0
33 34 -142 0
-33 34 142 0
36 38 143 0
-36 38 -143 0
36 -38 -143 0
-36 -38 143 0
42 44 144 0
-42 44 -144 0
42 -44 -144 0
-42 -44 144 0
45 46 145 0
-45 46 -145 0
45 -46 -145 0
-45 -46 145 0
-47 48 146 0
47 48 -146 0
-47 -48 -146 0
47 -48 146 0
133 -134 147 0
-133 -134 -147 0
133 134 -147 0
-133 134 147 0
135 -136 148 0
-135 -136 -148 0
135 136 -148 0
-135 136 148 0
137 -138 149 0
-137 -138 -149 0
137 138 -149 0
-137 138 149 0
139 -140 150 0
-139 -140 -150 0
139 140 -150 0
-139 140 150 0
141 -142 151 0
-141 -142 -151 0
141 142 -151 0
-141 142 151 0
143 -144 152 0
-143 -144 -152 0
143 144 -152 0
-143 144 152 0
145 -146 153 0
-145 -146 -153 0
145 146 -153 0
-145 146 153 0
147 -148 154 0
-147 -148 -154 0
147 148 -154 0
-147 148 154 0
149 -150 155 0
-149 -150 -155 0
149 150 -155 0
-149 150 155 0
151 -152 156 0
-151 -152 -156 0
151 152 -156 0
-151 152 156 0
153 -154 157 0
-153 -154 -157 0
153 154 -157 0
-153 154 157 0
155 -156 158 0
-155 -156 -158 0
155 156 -158 0
-155 156 158 0
157 158 0
-157 -158 0
-3 4 159 0
3 4 -159 0
-3 -4 -159 0
3 -4 159 0
-5 -7 160 0
5 -7 -160 0
-5 7 -160 0
5 7 160 0
8 -18 161 0
-8 -18 -161 0
8 18 -161 0
-8 18 161 0
-19 23 162 0
19 23 -162 0
-19 -23 -162 0
19 -23 162 0
30 32 163 0
-30 32 -163 0
30 -32 -163 0
-30 -32 163 0
-34 -35 164 0
34 -35 -164 0
-34 35 -164 0
34 35 164 0
37 -38 165 0
-37 -38 -165 0
37 38 -165 0
-37 38 165 0
39 -40 166 0
-39 -40 -166 0
39 40 -166 0
-39 40 166 0
42 43 167 0
-42 43 -167 0
42 -43 -167 0
-42 -43 167 0
-45 -46 168 0
45 -46 -168 0
-45 46 -168 0
45 46 168 0
158 -159 169 0
-158 -159 -169 0
158 159 -169 0
-158 159 169 0
160 -161 170 0
-160 -161 -170 0
160 161 -170 0
-160 161 170 0
162 -163 171 0
-162 -163 -171 0
162 163 -171 0
-162 163 171 0
164 -165 172 0
-164 -165 -172 0
164 165 -172 0
-164 165 172 0
166 -167 173 0
-166 -167 -173 0
166 167 -173 0
-166 167 173 0
168 -169 174 0
-168 -169 -174 0
168 169 -174 0
-168 169 174 0
170 -171 175 0
-170 -171 -175 0
170 171 -175 0
-170 171 175 0
172 -173 176 0
-172 -173 -176 0
172 173 -176 0
-172 173 176 0
-174 -175 176 0
174 -175 -176 0
-174 175 -176 0
174 175 176 0
-1 2 177 0
1 2 -177 0
-1 -2 -177 0
1 -2 177 0
5 -7 178 0
-5 -7 -178 0
5 7 -178 0
-5 7 178 0
8 9 179 0
-8 9 -179 0
8 -9 -179 0
-8 -9 179 0
-11 16 180 0
11 16 -180 0
-11 -16 -180 0
11 -16 180 0
18 20 181 0
-18 20 -181 0
18 -20 -181 0
-18 -20 181 0
25 30 182 0
-25 30 -182 0
25 -30 -182 0
-25 -30 182 0
-36 38 183 0
36 38 -183 0
-36 -38 -183 0
36 -38 183 0
-39 42 184 0
39 42 -184 0
-39 -42 -184 0
39 -42 184 0
44 46 185 0
-44 46 -185 0
44 -46 -185 0
-44 -46 185 0
-48 50 186 0
48 50 -186 0
-48 -50 -186 0
48 -50 186 0
177 -178 187 0
-177 -178 -187 0
177 178 -187 0
-177 178 187 0
179 -180 188 0
-179 -180 -188 0
179 180 -188 0
-179 180 188 0
181 -182 189 0
-181 -182 -189 0
181 182 -189 0
-181 182 189 0
183 -184 190 0
-183 -184 -190 0
183 184 -190 0
-183 184 190 0
185 -186 191 0
-185 -186 -191 0
185 186 -191 0
-185 186 191 0
187 -188 192 0
-187 -188 -192 0
187 188 -192 0
-187 188 192 0
189 -190 193 0
-189 -190 -193 0
189 190 -193 0
-189 190 193 0
-191 -192 193 0
191 -192 -193 0
-191 192 -193 0
191 192 193 0
-2 3 194 0
2 3 -194 0
-2 -3 -194 0
2 -3 194 0
12 14 195 0
-12 14 -195 0
12 -14 -195 0
-12 -14 195 0
19 23 196 0
-19 23 -196 0
19 -23 -196 0
-19 -23 196 0
24 25 197 0
-24 25 -197 0
24 -25 -197 0
-24 -25 197 0
27 -28 198 0
-27 -28 -198 0
27 28 -198 0
-27 28 198 0
-30 31 199 0
30 31 -199 0
-30 -31 -199 0
30 -31 199 0
32 35 200 0
-32 35 -200 0
32 -35 -200 0
-32 -35 200 0
38 40 201 0
-38 40 -201 0
38 -40 -201 0
-38 -40 201 0
43 -46 202 0
-43 -46 -202 0
43 46 -202 0
-43 46 202 0
47 48 203 0
-47 48 -203 0
47 -48 -203 0
-47 -48 203 0
193 -194 204 0
-193 -194 -204 0
193 194 -204 0
-193 194 204 0
195 -196 205 0
-195 -196 -205 0
195 196 -205 0
-195 196 205 0
197 -198 206 0
-197 -198 -206 0
197 198 -206 0
-197 198 206 0
199 -200 207 0
-199 -200 -207 0
199 200 -207 0
-199 200 207 0
201 -202 208 0
-201 -202 -208 0
201 202 -208 0
-201 202 208 0
203 -204 209 0
-203 -204 -209 0
203 204 -209 0
-203 204 209 0
205 -206 210 0
-205 -206 -210 0
205 206 -210 0
-205 206 210 0
207 -208 211 0
-207 -208 -211 0
207 208 -211 0
-207 208 211 0
-209 -210 211 0
209 -210 -211 0
-209 210 -211 0
209 210 211 0
-3 -4 212 0
3 -4 -212 0
-3 4 -212 0
3 4 212 0
6 -9 213 0
-6 -9 -213 0
6 9 -213 0
-6 9 213 0
-10 -12 214 0
10 -12 -214 0
-10 12 -214 0
10 12 214 0
-13 15 215 0
13 15 -215 0
-13 -15 -215 0
13 -15 215 0
19 -21 216 0
-19 -21 -216 0
19 21 -216 0
-19 21 216 0
-24 -27 217 0
24 -27 -217 0
-24 27 -217 0
24 27 217 0
30 -33 218 0
-30 -33 -218 0
30 33 -218 0
-30 33 218 0
36 -37 219 0
-36 -37 -219 0
36 37 -219 0
-36 37 219 0
39 -43 220 0
-39 -43 -220 0
39 43 -220 0
-39 43 220 0
44 -46 221 0
-44 -46 -221 0
44 46 -221 0
-44 46 221 0
211 -212 222 0
-211 -212 -222 0
211 212 -222 0
-211 212 222 0
213 -214 223 0
-213 -214 -223 0
213 214 -223 0
-213 214 223 0
215 -216 224 0
-215 -216 -224 0
215 216 -224 0
-215 216 224 0
217 -218 225 0
-217 -218 -225 0
217 218 -225 0
-217 218 225 0
219 -220 226 0
-219 -220 -226 0
219 220 -226 0
-219 220 226 0
221 -222 227 0
-221 -222 -227 0
221 222 -227 0
-221 222 227 0
223 -224 228 0
-223 -224 -228 0
223 224 -228 0
-223 224 228 0
225 -226 229 0
-225 -226 -229 0
225 226 -229 0
-225 226 229 0
-227 -228 229 0
227 -228 -229 0
-227 228 -229 0
227 228 229 0
1 3 230 0
-1 3 -230 0
1 -3 -230 0
-1 -3 230 0
5 -6 231 0
-5 -6 -231 0
5 6 -231 0
-5 6 231 0
10 11 232 0
-10 11 -232 0
10 -11 -232 0
-10 -11 232 0
12 17 233 0
-12 17 -233 0
12 -17 -233 0
-12 -17 233 0
21 22 234 0
-21 22 -234 0
21 -22 -234 0
-21 -22 234 0
24 25 235 0
-24 25 -235 0
24 -25 -235 0
-24 -25 235 0
26 27 236 0
-26 27 -236 0
26 -27 -236 0
-26 -27 236 0
-29 30 237 0
29 30 -237 0
-29 -30 -237 0
29 -30 237 0
-32 -33 238 0
32 -33 -238 0
-32 33 -238 0
32 33 238 0
-34 35 239 0
34 35 -239 0
-34 -35 -239 0
34 -35 239 0
36 -37 240 0
-36 -37 -240 0
36 37 -240 0
-36 37 240 0
40 41 241 0
-40 41 -241 0
40 -41 -241 0
-40 -41 241 0
-48 -49 242 0
48 -49 -242 0
-48 49 -242 0
48 49 242 0
229 -230 243 0
-229 -230 -243 0
229 230 -243 0
-229 230 243 0
231 -232 244 0
-231 -232 -244 0
231 232 -244 0
-231 232 244 0
233 -234 245 0
-233 -234 -245 0
233 234 -245 0
-233 234 245 0
235 -236 246 0
-235 -236 -246 0
235 236 -246 0
-235 236 246 0
237 -238 247 0
-237 -238 -247 0
237 238 -247 0
-237 238 247 0
239 -240 248 0
-239 -240 -248 0
239 240 -248 0
-239 240 248 0
241 -242 249 0
-241 -242 -249 0
241 242 -249 0
-241 242 249 0
243 -244 250 0
-243 -244 -250 0
243 244 -250 0
-243 244 250 0
245 -246 251 0
-245 -246 -251 0
245 246 -251 0
-245 246 251 0
247 -248 252 0
-247 -248 -252 0
247 248 -252 0
-247 248 252 0
249 -250 253 0
-249 -250 -253 0
249 250 -253 0
-249 250 253 0
251 -252 254 0
-251 -252 -254 0
251 252 -254 0
-251 252 254 0
253 254 0
-253 -254 0
-1 -2 255 0
1 -2 -255 0
-1 2 -255 0
1 2 255 0
5 6 256 0
-5 6 -256 0
5 -6 -256 0
-5 -6 256 0
-8 -9 257 0
8 -9 -257 0
-8 9 -257 0
8 9 257 0
-10 -11 258 0
10 -11 -258 0
-10 11 -258 0
10 11 258 0
-13 -14 259 0
13 -14 -259 0
-13 14 -259 0
13 14 259 0
-15 17 260 0
15 17 -260 0
-15 -17 -260 0
15 -17 260 0
-18 -24 261 0
18 -24 -261 0
-18 24 -261 0
18 24 261 0
-27 28 262 0
27 28 -262 0
-27 -28 -262 0
27 -28 262 0
-30 32 263 0
30 32 -263 0
-30 -32 -263 0
30 -32 263 0
35 36 264 0
-35 36 -264 0
35 -36 -264 0
-35 -36 264 0
37 39 265 0
-37 39 -265 0
37 -39 -265 0
-37 -39 265 0
41 42 266 0
-41 42 -266 0
41 -42 -266 0
-41 -42 266 0
43 45 267 0
-43 45 -267 0
43 -45 -267 0
-43 -45 267 0
46 47 268 0
-46 47 -268 0
46 -47 -268 0
-46 -47 268 0
48 -50 269 0
-48 -50 -269 0
48 50 -269 0
-48 50 269 0
255 -256 270 0
-255 -256 -270 0
255 256 -270 0
-255 256 270 0
257 -258 271 0
-257 -258 -271 0
257 258 -271 0
-257 258 271 0
259 -260 272 0
-259 -260 -272 0
259 260 -272 0
-259 260 272 0
261 -262 273 0
-261 -262 -273 0
261 262 -273 0
-261 262 273 0
263 -264 274 0
-263 -264 -274 0
263 264 -274 0
-263 264 274 0
265 -266 275 0
-265 -266 -275 0
265 266 -275 0
-265 266 275 0
267 -268 276 0
-267 -268 -276 0
267 268 -276 0
-267 268 276 0
269 -270 277 0
-269 -270 -277 0
269 270 -277 0
-269 270 277 0
271 -272 278 0
-271 -272 -278 0
271 272 -278 0
-271 272 278 0
273 -274 279 0
-273 -274 -279 0
273 274 -279 0
-273 274 279 0
275 -276 280 0
-275 -276 -280 0
275 276 -280 0
-275 276 280 0
277 -278 281 0
-277 -278 -281 0
277 278 -281 0
-277 278 281 0
279 -280 282 0
-279 -280 -282 0
279 280 -282 0
-279 280 282 0
281 282 0
-281 -282 0
1 2 283 0
-1 2 -283 0
1 -2 -283 0
-1 -2 283 0
-5 6 284 0
5 6 -284 0
-5 -6 -284 0
5 -6 284 0
9 -10 285 0
-9 -10 -285 0
9 10 -285 0
-9 10 285 0
-11 13 286 0
11 13 -286 0
-11 -13 -286 0
11 -13 286 0
15 16 287 0
-15 16 -287 0
15 -16 -287 0
-15 -16 287 0
17 18 288 0
-17 18 -288 0
17 -18 -288 0
-17 -18 288 0
19 21 289 0
-19 21 -289 0
19 -21 -289 0
-19 -21 289 0
23 25 290 0
-23 25 -290 0
23 -25 -290 0
-23 -25 290 0
26 35 291 0
-26 35 -291 0
26 -35 -291 0
-26 -35 291 0
-37 -39 292 0
37 -39 -292 0
-37 39 -292 0
37 39 292 0
-40 -42 293 0
40 -42 -293 0
-40 42 -293 0
40 42 293 0
-43 -44 294 0
43 -44 -294 0
-43 44 -294 0
43 44 294 0
45 -48 295 0
-45 -48 -295 0
45 48 -295 0
-45 48 295 0
49 50 296 0
-49 50 -296 0
49 -50 -296 0
-49 -50 296 0
283 -284 297 0
-283 -284 -297 0
283 284 -297 0
-283 284 297 0
285 -286 298 0
-285 -286 -298 0
285 286 -298 0
-285 286 298 0
287 -288 299 0
-287 -288 -299 0
287 288 -299 0
-287 288 299 0
289 -290 300 0
-289 -290 -300 0
289 290 -300 0
-289 290 300 0
291 -292 301 0
-291 -292 -301 0
291 292 -301 0
-291 292 301 0
293 -294 302 0
-293 -294 -302 0
293 294 -302 0
-293 294 302 0
295 -296 303 0
-295 -296 -303 0
295 296 -303 0
-295 296 303 0
297 -298 304 0
-297 -298 -304 0
297 298 -304 0
-297 298 304 0
299 -300 305 0
-299 -300 -305 0
299 300 -305 0
-299 300 305 0
301 -302 306 0
-301 -302 -306 0
301 302 -306 0
-301 302 306 0
303 -304 307 0
-303 -304 -307 0
303 304 -307 0
-303 304 307 0
305 -306 308 0
-305 -306 -308 0
305 306 -308 0
-305 306 308 0
307 308 0
-307 -308 0
-2 3 309 0
2 3 -309 0
-2 -3 -309 0
2 -3 309 0
4 7 310 0
-4 7 -310 0
4 -7 -310 0
-4 -7 310 0
9 -11 311 0
-9 -11 -311 0
9 11 -311 0
-9 11 311 0
12 -13 312 0
-12 -13 -312 0
12 13 -312 0
-12 13 312 0
14 15 313 0
-14 15 -313 0
14 -15 -313 0
-14 -15 313 0
16 -17 314 0
-16 -17 -314 0
16 17 -314 0
-16 17 314 0
-18 -19 315 0
18 -19 -315 0
-18 19 -315 0
18 19 315 0
22 23 316 0
-22 23 -316 0
22 -23 -316 0
-22 -23 316 0
28 -30 317 0
-28 -30 -317 0
28 30 -317 0
-28 30 317 0
31 -33 318 0
-31 -33 -318 0
31 33 -318 0
-31 33 318 0
-34 -37 319 0
34 -37 -319 0
-34 37 -319 0
34 37 319 0
38 -40 320 0
-38 -40 -320 0
38 40 -320 0
-38 40 320 0
43 46 321 0
-43 46 -321 0
43 -46 -321 0
-43 -46 321 0
-48 -49 322 0
48 -49 -322 0
-48 49 -322 0
48 49 322 0
309 -310 323 0
-309 -310 -323 0
309 310 -323 0
-309 310 323 0
311 -312 324 0
-311 -312 -324 0
311 312 -324 0
-311 312 324 0
313 -314 325 0
-313 -314 -325 0
313 314 -325 0
-313 314 325 0
315 -316 326 0
-315 -316 -326 0
315 316 -326 0
-315 316 326 0
317 -318 327 0
-317 -318 -327 0
317 318 -327 0
-317 318 327 0
319 -320 328 0
-319 -320 -328 0
319 320 -328 0
-319 320 328 0
321 -322 329 0
-321 -322 -329 0
321 322 -329 0
-321 322 329 0
323 -324 330 0
-323 -324 -330 0
323 324 -330 0
-323 324 330 0
325 -326 331 0
-325 -326 -331 0
325 326 -331 0
-325 326 331 0
327 -328 332 0
-327 -328 -332 0
327 328 -332 0
-327 328 332 0
329 -330 333 0
-329 -330 -333 0
329 330 -333 0
-329 330 333 0
331 -332 334 0
-331 -332 -334 0
331 332 -334 0
-331 332 334 0
333 334 0
-333 -334 0
-2 -3 335 0
2 -3 -335 0
-2 3 -335 0
2 3 335 0
-5 11 336 0
5 11 -336 0
-5 -11 -336 0
5 -11 336 0
-14 15 337 0
14 15 -337 0
-14 -15 -337 0
14 -15 337 0
16 -18 338 0
-16 -18 -338 0
16 18 -338 0
-16 18 338 0
19 -21 339 0
-19 -21 -339 0
19 21 -339 0
-19 21 339 0
24 27 340 0
-24 27 -340 0
24 -27 -340 0
-24 -27 340 0
-29 -32 341 0
29 -32 -341 0
-29 32 -341 0
29 32 341 0
33 35 342 0
-33 35 -342 0
33 -35 -342 0
-33 -35 342 0
37 39 343 0
-37 39 -343 0
37 -39 -343 0
-37 -39 343 0
-41 -42 344 0
41 -42 -344 0
-41 42 -344 0
41 42 344 0
-44 -45 345 0
44 -45 -345 0
-44 45 -345 0
44 45 345 0
-46 -47 346 0
46 -47 -346 0
-46 47 -346 0
46 47 346 0
335 -336 347 0
-335 -336 -347 0
335 336 -347 0
-335 336 347 0
337 -338 348 0
-337 -338 -348 0
337 338 -348 0
-337 338 348 0
339 -340 349 0
-339 -340 -349 0
339 340 -349 0
-339 340 349 0
341 -342 350 0
-341 -342 -350 0
341 342 -350 0
-341 342 350 0
343 -344 351 0
-343 -344 -351 0
343 344 -351 0
-343 344 351 0
345 -346 352 0
-345 -346 -352 0
345 346 -352 0
-345 346 352 0
347 -348 353 0
-347 -348 -353 0
347 348 -353 0
-347 348 353 0
349 -350 354 0
-349 -350 -354 0
349 350 -354 0
-349 350 354 0
351 -352 355 0
-351 -352 -355 0
351 352 -355 0
-351 352 355 0
-353 -354 355 0
353 -354 -355 0
-353 354 -355 0
353 354 355 0
-1 4 356 0
1 4 -356 0
-1 -4 -356 0
1 -4 356 0
6 -10 357 0
-6 -10 -357 0
6 10 -357 0
-6 10 357 0
-11 15 358 0
11 15 -358 0
-11 -15 -358 0
11 -15 358 0
17 19 359 0
-17 19 -359 0
17 -19 -359 0
-17 -19 359 0
-20 -21 360 0
20 -21 -360 0
-20 21 -360 0
20 21 360 0
22 -23 361 0
-22 -23 -361 0
22 23 -361 0
-22 23 361 0
25 -26 362 0
-25 -26 -362 0
25 26 -362 0
-25 26 362 0
-29 -31 363 0
29 -31 -363 0
-29 31 -363 0
29 31 363 0
-33 37 364 0
33 37 -364 0
-33 -37 -364 0
33 -37 364 0
-38 -41 365 0
38 -41 -365 0
-38 41 -365 0
38 41 365 0
-43 -45 366 0
43 -45 -366 0
-43 45 -366 0
43 45 366 0
-47 -49 367 0
47 -49 -367 0
-47 49 -367 0
47 49 367 0
355 -356 368 0
-355 -356 -368 0
355 356 -368 0
-355 356 368 0
357 -358 369 0
-357 -358 -369 0
357 358 -369 0
-357 358 369 0
359 -360 370 0
-359 -360 -370 0
359 360 -370 0
-359 360 370 0
361 -362 371 0
-361 -362 -371 0
361 362 -371 0
-361 362 371 0
363 -364 372 0
-363 -364 -372 0
363 364 -372 0
-363 364 372 0
365 -366 373 0
-365 -366 -373 0
365 366 -373 0
-365 366 373 0
367 -368 374 0
-367 -368 -374 0
367 368 -374 0
-367 368 374 0
369 -370 375 0
-369 -370 -375 0
369 370 -375 0
-369 370 375 0
371 -372 376 0
-371 -372 -376 0
371 372 -376 0
-371 372 376 0
373 -374 377 0
-373 -374 -377 0
373 374 -377 0
-373 374 377 0
375 -376 378 0
-375 -376 -378 0
375 376 -378 0
-375 376 378 0
377 378 0
-377 -378 0
-12 379 0
-24 379 0
-12 -24 380 0
-23 379 0
-12 -23 380 0
-24 -23 380 0
-12 -24 -23 381 0
-22 382 0
-21 382 0
-22 -21 383 0
-20 382 0
-22 -20 383 0
-21 -20 383 0
-22 -21 -20 384 0
-379 385 0
-380 386 0
-381 387 0
-382 385 0
-383 386 0
-384 387 0
-379 -382 386 0
-379 -383 387 0
-379 -384 388 0
-380 -382 387 0
-380 -383 388 0
-380 -384 389 0
-381 -382 388 0
-381 -383 389 0
-381 -384 390 0
-19 391 0
-18 391 0
-19 -18 392 0
-17 391 0
-19 -17 392 0
-18 -17 392 0
-19 -18 -17 393 0
-16 394 0
-15 394 0
-16 -15 395 0
-14 394 0
-16 -14 395 0
-15 -14 395 0
-16 -15 -14 396 0
-391 397 0
-392 398 0
-393 399 0
-394 397 0
-395 398 0
-396 399 0
-391 -394 398 0
-391 -395 399 0
-391 -396 400 0
-392 -394 399 0
-392 -395 400 0
-392 -396 401 0
-393 -394 400 0
-393 -395 401 0
-393 -396 402 0
-13 403 0
-25 403 0
-13 -25 404 0
-11 403 0
-13 -11 404 0
-25 -11 404 0
-13 -25 -11 405 0
-10 406 0
-9 406 0
-10 -9 407 0
-8 406 0
-10 -8 407 0
-9 -8 407 0
-10 -9 -8 408 0
-403 409 0
-404 410 0
-405 411 0
-406 409 0
-407 410 0
-408 411 0
-403 -406 410 0
-403 -407 411 0
-403 -408 412 0
-404 -406 411 0
-404 -407 412 0
-404 -408 413 0
-405 -406 412 0
-405 -407 413 0
-405 -408 414 0
-7 415 0
-6 415 0
-7 -6 416 0
-5 415 0
-7 -5 416 0
-6 -5 416 0
-7 -6 -5 417 0
-4 418 0
-3 418 0
-4 -3 419 0
-2 420 0
-1 420 0
-2 -1 421 0
-37 420 0
-2 -37 421 0
-1 -37 421 0
-2 -1 -37 422 0
-418 423 0
-419 424 0
-420 423 0
-421 424 0
-422 425 0
-418 -420 424 0
-418 -421 425 0
-418 -422 426 0
-419 -420 425 0
-419 -421 426 0
-419 -422 427 0
-415 428 0
-416 429 0
-417 430 0
-423 428 0
-424 429 0
-425 430 0
-426 431 0
-427 432 0
-415 -423 429 0
-415 -424 430 0
-415 -425 431 0
-415 -426 432 0
-415 -427 433 0
-416 -423 430 0
-416 -424 431 0
-416 -425 432 0
-416 -426 433 0
-416 -427 434 0
-417 -423 431 0
-417 -424 432 0
-417 -425 433 0
-417 -426 434 0
-417 -427 435 0
-49 436 0
-48 436 0
-49 -48 437 0
-47 436 0
-49 -47 437 0
-48 -47 437 0
-49 -48 -47 438 0
-46 439 0
-45 439 0
-46 -45 440 0
-44 441 0
-43 441 0
-44 -43 442 0
-42 441 0
-44 -42 442 0
-43 -42 442 0
-44 -43 -42 443 0
-439 444 0
-440 445 0
-441 444 0
-442 445 0
-443 446 0
-439 -441 445 0
-439 -442 446 0
-439 -443 447 0
-440 -441 446 0
-440 -442 447 0
-440 -443 448 0
-436 449 0
-437 450 0
-438 451 0
-444 449 0
-445 450 0
-446 451 0
-447 452 0
-448 453 0
-436 -444 450 0
-436 -445 451 0
-436 -446 452 0
-436 -447 453 0
-436 -448 454 0
-437 -444 451 0
-437 -445 452 0
-437 -446 453 0
-437 -447 454 0
-437 -448 455 0
-438 -444 452 0
-438 -445 453 0
-438 -446 454 0
-438 -447 455 0
-438 -448 456 0
-41 457 0
-40 457 0
-41 -40 458 0
-39 457 0
-41 -39 458 0
-40 -39 458 0
-41 -40 -39 459 0
-38 460 0
-50 460 0
-38 -50 461 0
-36 462 0
-35 462 0
-36 -35 463 0
-34 462 0
-36 -34 463 0
-35 -34 463 0
-36 -35 -34 464 0
-460 465 0
-461 466 0
-462 465 0
-463 466 0
-464 467 0
-460 -462 466 0
-460 -463 467 0
-460 -464 468 0
-461 -462 467 0
-461 -463 468 0
-461 -464 469 0
-457 470 0
-458 471 0
-459 472 0
-465 470 0
-466 471 0
-467 472 0
-468 473 0
-469 474 0
-457 -465 471 0
-457 -466 472 0
-457 -467 473 0
-457 -468 474 0
-457 -469 475 0
-458 -465 472 0
-458 -466 473 0
-458 -467 474 0
-458 -468 475 0
-458 -469 476 0
-459 -465 473 0
-459 -466 474 0
-459 -467 475 0
-459 -468 476 0
-459 -469 477 0
-33 478 0
-32 478 0
-33 -32 479 0
-31 478 0
-33 -31 479 0
-32 -31 479 0
-33 -32 -31 480 0
-30 481 0
-29 481 0
-30 -29 482 0
-28 483 0
-27 483 0
-28 -27 484 0
-26 483 0
-28 -26 484 0
-27 -26 484 0
-28 -27 -26 485 0
-481 486 0
-482 487 0
-483 486 0
-484 487 0
-485 488 0
-481 -483 487 0
-481 -484 488 0
-481 -485 489 0
-482 -483 488 0
-482 -484 489 0
-482 -485 490 0
-478 491 0
-479 492 0
-480 493 0
-486 491 0
-487 492 0
-488 493 0
-489 494 0
-490 495 0
-478 -486 492 0
-478 -487 493 0
-478 -488 494 0
-478 -489 495 0
-478 -490 496 0
-479 -486 493 0
-479 -487 494 0
-479 -488 495 0
-479 -489 496 0
-479 -490 497 0
-480 -486 494 0
-480 -487 495 0
-480 -488 496 0
-480 -489 497 0
-480 -490 498 0
-470 499 0
-472 500 0
-474 501 0
-476 502 0
-491 499 0
-493 500 0
-495 501 0
-497 502 0
-470 -491 500 0
-470 -493 501 0
-470 -495 502 0
-470 -497 503 0
-472 -491 501 0
-472 -493 502 0
-472 -495 503 0
-472 -497 504 0
-474 -491 502 0
-474 -493 503 0
-474 -495 504 0
-476 -491 503 0
-476 -493 504 0
-471 505 0
-475 506 0
-492 505 0
-496 506 0
-471 -492 506 0
-471 -496 507 0
-475 -492 507 0
-473 508 0
-477 509 0
-494 508 0
-498 509 0
-473 -494 509 0
-506 510 0
-508 510 0
-506 -508 511 0
-507 512 0
-509 512 0
-507 -509 513 0
-500 514 0
-505 514 0
-500 -505 515 0
-501 516 0
-510 516 0
-501 -510 517 0
-502 518 0
-511 518 0
-502 -511 519 0
-503 520 0
-512 520 0
-503 -512 521 0
-504 522 0
-513 522 0
-504 -513 523 0
-449 524 0
-451 525 0
-453 526 0
-455 527 0
-499 524 0
-515 525 0
-517 526 0
-519 527 0
-521 528 0
-523 529 0
-449 -499 525 0
-449 -515 526 0
-449 -517 527 0
-449 -519 528 0
-449 -521 529 0
-451 -499 526 0
-451 -515 527 0
-451 -517 528 0
-451 -519 529 0
-453 -499 527 0
-453 -515 528 0
-453 -517 529 0
-455 -499 528 0
-455 -515 529 0
-450 530 0
-454 531 0
-514 530 0
-518 531 0
-522 532 0
-450 -514 531 0
-450 -518 532 0
-454 -514 532 0
-452 533 0
-456 534 0
-516 533 0
-520 534 0
-452 -516 534 0
-531 535 0
-533 535 0
-531 -533 536 0
-532 537 0
-534 537 0
-532 -534 538 0
-525 539 0
-530 539 0
-525 -530 540 0
-526 541 0
-535 541 0
-526 -535 542 0
-527 543 0
-536 543 0
-527 -536 544 0
-528 545 0
-537 545 0
-528 -537 546 0
-529 547 0
-538 547 0
-529 -538 548 0
-428 549 0
-430 550 0
-432 551 0
-434 552 0
-524 549 0
-540 550 0
-542 551 0
-544 552 0
-546 553 0
-548 554 0
-428 -524 550 0
-428 -540 551 0
-428 -542 552 0
-428 -544 553 0
-428 -546 554 0
-430 -524 551 0
-430 -540 552 0
-430 -542 553 0
-430 -544 554 0
-432 -524 552 0
-432 -540 553 0
-432 -542 554 0
-434 -524 553 0
-434 -540 554 0
-429 555 0
-433 556 0
-539 555 0
-543 556 0
-547 557 0
-429 -539 556 0
-429 -543 557 0
-433 -539 557 0
-431 558 0
-435 559 0
-541 558 0
-545 559 0
-431 -541 559 0
-556 560 0
-558 560 0
-556 -558 561 0
-557 562 0
-559 562 0
-557 -559 563 0
-550 564 0
-555 564 0
-550 -555 565 0
-551 566 0
-560 566 0
-551 -560 567 0
-552 568 0
-561 568 0
-552 -561 569 0
-553 570 0
-562 570 0
-553 -562 571 0
-554 572 0
-563 572 0
-554 -563 573 0
-409 574 0
-411 575 0
-413 576 0
-549 574 0
-565 575 0
-567 576 0
-569 577 0
-571 578 0
-573 579 0
-409 -549 575 0
-409 -565 576 0
-409 -567 577 0
-409 -569 578 0
-409 -571 579 0
-411 -549 576 0
-411 -565 577 0
-411 -567 578 0
-411 -569 579 0
-413 -549 577 0
-413 -565 578 0
-413 -567 579 0
-410 580 0
-412 581 0
-414 582 0
-564 580 0
-566 581 0
-568 582 0
-570 583 0
-572 584 0
-410 -564 581 0
-410 -566 582 0
-410 -568 583 0
-410 -570 584 0
-412 -564 582 0
-412 -566 583 0
-412 -568 584 0
-414 -564 583 0
-414 -566 584 0
-575 585 0
-580 585 0
-575 -580 586 0
-576 587 0
-581 587 0
-576 -581 588 0
-577 589 0
-582 589 0
-577 -582 590 0
-578 591 0
-583 591 0
-578 -583 592 0
-579 593 0
-584 593 0
-579 -584 594 0
-397 595 0
-399 596 0
-401 597 0
-574 595 0
-586 596 0
-588 597 0
-590 598 0
-592 599 0
-594 600 0
-397 -574 596 0
-397 -586 597 0
-397 -588 598 0
-397 -590 599 0
-397 -592 600 0
-399 -574 597 0
-399 -586 598 0
-399 -588 599 0
-399 -590 600 0
-401 -574 598 0
-401 -586 599 0
-401 -588 600 0
-398 601 0
-400 602 0
-402 603 0
-585 601 0
-587 602 0
-589 603 0
-591 604 0
-593 605 0
-398 -585 602 0
-398 -587 603 0
-398 -589 604 0
-398 -591 605 0
-400 -585 603 0
-400 -587 604 0
-400 -589 605 0
-402 -585 604 0
-402 -587 605 0
-596 606 0
-601 606 0
-596 -601 607 0
-597 608 0
-602 608 0
-597 -602 609 0
-598 610 0
-603 610 0
-598 -603 611 0
-599 612 0
-604 612 0
-599 -604 613 0
-600 614 0
-605 614 0
-600 -605 615 0
-385 616 0
-387 617 0
-389 618 0
-595 616 0
-607 617 0
-609 618 0
-611 619 0
-613 620 0
-615 621 0
-385 -595 617 0
-385 -607 618 0
-385 -609 619 0
-385 -611 620 0
-385 -613 621 0
-387 -595 618 0
-387 -607 619 0
-387 -609 620 0
-387 -611 621 0
-389 -595 619 0
-389 -607 620 0
-389 -609 621 0
-386 622 0
-388 623 0
-390 624 0
-606 622 0
-608 623 0
-610 624 0
-612 625 0
-614 626 0
-386 -606 623 0
-386 -608 624 0
-386 -610 625 0
-386 -612 626 0
-388 -606 624 0
-388 -608 625 0
-388 -610 626 0
-390 -606 625 0
-390 -608 626 0
-617 627 0
-622 627 0
-617 -622 628 0
-618 629 0
-623 629 0
-618 -623 630 0
-619 631 0
-624 631 0
-619 -624 632 0
-620 633 0
-625 633 0
-620 -625 634 0
-621 635 0
-626 635 0
-621 -626 636 0
-636 0
